=obj=                39666.9999999966
x....001             0
x....002             0
x....003             0
x....004             0
x....005             67.9999999989996
x....006             0
x....007             0
x....008             0
x....009             0
x....010             0
x....011             83
x....012             0
x....013             0
x....014             0
x....015             0
x....016             0
x....017             23
x....018             0
x....019             0
x....020             0
x....021             0
x....022             44.9999999999998
x....023             0
x....024             0
x....025             42
x....026             0
x....027             0
x....028             0
x....029             0
x....030             0
x....031             0
x....032             0
x....033             0
x....034             0
x....035             50
x....036             0
x....037             0
x....038             0
x....039             0
x....040             151.999999999
x....041             0
x....042             0
x....043             0
x....044             0
x....045             0
x....046             0
x....047             0
x....048             0
x....049             0
x....050             0
x....051             0
x....052             0
x....053             0
x....054             0
x....055             0
x....056             0
x....057             0
x....058             0
x....059             0
x....060             47.9999999999998
x....061             0
x....062             0
x....063             0
x....064             11
x....065             0
x....066             0
x....067             0
x....068             0
x....069             0
x....070             0
x....071             0
x....072             -1.00000363545405e-09
x....073             0
x....074             0
x....075             0
x....076             10
x....077             0
x....078             0
x....079             -1.00000363545405e-09
x....080             0
x....081             0
x....082             0
x....083             0
x....084             0
x....085             43.9999999979996
x....086             0
x....087             0
x....088             0
x....089             0
x....090             0
x....091             0
x....092             0
x....093             0
x....094             0
x....095             0
x....096             0
x....097             0
x....098             0
x....099             0
x....100             0
x....101             0
x....102             0
x....103             4
x....104             0
x....105             0
x....106             0
x....107             0
x....108             0
x....109             -2.29337936556108e-11
x....110             14.0000000000175
x....111             0
x....112             0
x....113             34.0000000000424
x....114             -9.979856940844909e-10
x....115             0
x....116             0
x....117             0
x....118             5.00000000100023
x....119             0
x....120             0
x....121             0
x....122             0
x....123             0
x....124             0
x....125             0
x....126             0
x....127             0
x....128             1.00000008274037e-09
x....129             0
x....130             0
x....131             0
x....132             0
x....133             0
x....134             0
x....135             0
x....136             0
x....137             0
x....138             0
x....139             14.0000000020002
x....140             0
x....141             0
x....142             0
x....143             0
x....144             0
x....145             26.9999999999998
x....146             0
x....147             0
x....148             -2.00044780740427e-09
x....149             0
x....150             0
x....151             0
x....152             0
x....153             0
x....154             0
x....155             0
x....156             4.999999999
x....157             13
x....158             0
x....159             0
x....160             45
x....161             0
x....162             34
x....163             0
x....164             0
x....165             0
x....166             52
x....167             0
x....168             21
x....169             0
x....170             0
x....171             0
x....172             45
x....173             0
x....174             0
x....175             0
x....176             0
x....177             0
x....178             0
x....179             0
x....180             42
x....181             0
x....182             0
x....183             0
x....184             0
x....185             0
x....186             0
x....187             131
x....188             0
x....189             7.99999999999977
x....190             0
x....191             0
x....192             0
x....193             0
x....194             0
x....195             0
x....196             9
x....197             0
x....198             2.27373675443232e-13
x....199             0
x....200             0
x....201             0
x....202             0
x....203             0
x....204             0
x....205             0
x....206             0
x....207             0
x....208             0
x....209             0
x....210             0
x....211             127
x....212             0
x....213             0
x....214             0
x....215             0
x....216             112
x....217             0
x....218             15
x....219             89.000000001
x....220             2.0000072709081e-09
x....221             0
x....222             70.0000000000002
x....223             20.0000000010002
x....224             0
x....225             0
x....226             0
x....227             0
x....228             0
x....229             0
x....230             0
x....231             0
x....232             0
x....233             0
x....234             0
x....235             0
x....236             0
x....237             0
x....238             0
x....239             0
x....240             0
x....241             0
x....242             0
x....243             0
x....244             0
x....245             0
x....246             0
x....247             0
x....248             0
x....249             0
x....250             0
x....251             58.0000000000404
x....252             0
x....253             0
x....254             0
x....255             0
x....256             0
x....257             0
x....258             0
x....259             0
x....260             0
x....261             0
x....262             0
x....263             0
x....264             15
x....265             0
x....266             0
x....267             0
x....268             0
x....269             0
x....270             0
x....271             0
x....272             0
x....273             0
x....274             0
x....275             17
x....276             0
x....277             0
x....278             0
x....279             0
x....280             0
x....281             0
x....282             38
x....283             0
x....284             0
x....285             0
x....286             0
x....287             0
x....288             0
x....289             0
x....290             44.0000000000002
x....291             0
x....292             26
x....293             0
x....294             0
x....295             0
x....296             0
x....297             0
x....298             0
x....299             0
x....300             0
x....301             0
x....302             0
x....303             0
x....304             0
x....305             0
x....306             0
x....307             0
x....308             0
x....309             0
x....310             0
x....311             0
x....312             0
x....313             0
x....314             0
x....315             0
x....316             0
x....317             0
x....318             0
x....319             0
x....320             0
x....321             0
x....322             0
x....323             0
x....324             2.27373675443232e-13
x....325             0
x....326             0
x....327             0
x....328             0
x....329             0
x....330             0
x....331             0
x....332             0
x....333             0
x....334             0
x....335             0
x....336             0
x....337             0
x....338             0
x....339             0
x....340             0
x....341             0
x....342             2.27373675443232e-13
x....343             0
x....344             0
x....345             74
x....346             0
x....347             0
x....348             0
x....349             0
x....350             0
x....351             0
x....352             0
x....353             0
x....354             0
x....355             0
x....356             0
x....357             0
x....358             0
x....359             0
x....360             0
x....361             0
x....362             0
x....363             0
x....364             0
x....365             0
x....366             25
x....367             0
x....368             13
x....369             0
x....370             31
x....371             0
x....372             0
x....373             0
x....374             -4.04011545466433e-11
x....375             -7.46502859527709e-12
x....376             0
x....377             -3.29361259513662e-11
x....378             0
x....379             0
x....380             0
x....381             0
x....382             0
x....383             0
x....384             0
x....385             20
x....386             0
x....387             0
x....388             0
x....389             0
x....390             0
x....391             0
x....392             0
x....393             -9.00399754755199e-11
x....394             0
x....395             82.0000000001304
x....396             0
x....397             0
x....398             0
x....399             -3.7427061450046e-11
x....400             40.0000000000855
y....001             0
y....002             0
y....003             0
y....004             0
y....005             1
y....006             0
y....007             0
y....008             0
y....009             0
y....010             0
y....011             1
y....012             0
y....013             0
y....014             0
y....015             0
y....016             0
y....017             1
y....018             0
y....019             0
y....020             0
y....021             0
y....022             1
y....023             0
y....024             0
y....025             1
y....026             0
y....027             0
y....028             0
y....029             0
y....030             0
y....031             0
y....032             0
y....033             0
y....034             0
y....035             1
y....036             0
y....037             0
y....038             0
y....039             0
y....040             1
y....041             0
y....042             0
y....043             0
y....044             0
y....045             0
y....046             0
y....047             0
y....048             0
y....049             0
y....050             0
y....051             0
y....052             0
y....053             0
y....054             0
y....055             0
y....056             0
y....057             0
y....058             0
y....059             0
y....060             1
y....061             0
y....062             0
y....063             0
y....064             1
y....065             0
y....066             0
y....067             0
y....068             0
y....069             0
y....070             0
y....071             0
y....072             0
y....073             0
y....074             0
y....075             0
y....076             1
y....077             0
y....078             0
y....079             0
y....080             0
y....081             0
y....082             0
y....083             0
y....084             0
y....085             1
y....086             0
y....087             0
y....088             0
y....089             0
y....090             0
y....091             0
y....092             0
y....093             0
y....094             0
y....095             0
y....096             0
y....097             0
y....098             0
y....099             0
y....100             0
y....101             0
y....102             0
y....103             1
y....104             0
y....105             0
y....106             0
y....107             0
y....108             0
y....109             0
y....110             1.00000000000125
y....111             0
y....112             0
y....113             1
y....114             -1.24766863507375e-12
y....115             0
y....116             0
y....117             0
y....118             1
y....119             0
y....120             0
y....121             0
y....122             0
y....123             0
y....124             0
y....125             0
y....126             0
y....127             0
y....128             0
y....129             0
y....130             0
y....131             0
y....132             0
y....133             0
y....134             0
y....135             0
y....136             0
y....137             0
y....138             0
y....139             1
y....140             0
y....141             0
y....142             0
y....143             0
y....144             0
y....145             1
y....146             0
y....147             0
y....148             0
y....149             0
y....150             0
y....151             0
y....152             0
y....153             0
y....154             0
y....155             0
y....156             1
y....157             1
y....158             0
y....159             0
y....160             1
y....161             0
y....162             1
y....163             0
y....164             0
y....165             0
y....166             1
y....167             0
y....168             1
y....169             0
y....170             0
y....171             0
y....172             1
y....173             0
y....174             0
y....175             0
y....176             0
y....177             0
y....178             0
y....179             0
y....180             1
y....181             0
y....182             0
y....183             0
y....184             0
y....185             0
y....186             0
y....187             1
y....188             0
y....189             1
y....190             0
y....191             0
y....192             0
y....193             0
y....194             0
y....195             0
y....196             1
y....197             0
y....198             0
y....199             0
y....200             0
y....201             0
y....202             0
y....203             0
y....204             0
y....205             0
y....206             0
y....207             0
y....208             0
y....209             0
y....210             0
y....211             1
y....212             0
y....213             0
y....214             0
y....215             0
y....216             1
y....217             0
y....218             1
y....219             1
y....220             0
y....221             0
y....222             1
y....223             1
y....224             0
y....225             0
y....226             0
y....227             0
y....228             0
y....229             0
y....230             0
y....231             0
y....232             0
y....233             0
y....234             0
y....235             0
y....236             0
y....237             0
y....238             0
y....239             0
y....240             0
y....241             0
y....242             0
y....243             0
y....244             0
y....245             0
y....246             0
y....247             0
y....248             0
y....249             0
y....250             0
y....251             1.00000000000125
y....252             0
y....253             0
y....254             0
y....255             0
y....256             0
y....257             0
y....258             0
y....259             0
y....260             0
y....261             0
y....262             0
y....263             0
y....264             1
y....265             0
y....266             0
y....267             0
y....268             0
y....269             0
y....270             0
y....271             0
y....272             0
y....273             0
y....274             0
y....275             1
y....276             0
y....277             0
y....278             0
y....279             0
y....280             0
y....281             0
y....282             1
y....283             0
y....284             0
y....285             0
y....286             0
y....287             0
y....288             0
y....289             0
y....290             1
y....291             0
y....292             1
y....293             0
y....294             0
y....295             0
y....296             0
y....297             0
y....298             0
y....299             0
y....300             0
y....301             0
y....302             0
y....303             0
y....304             0
y....305             0
y....306             0
y....307             0
y....308             0
y....309             0
y....310             0
y....311             0
y....312             0
y....313             0
y....314             0
y....315             0
y....316             0
y....317             0
y....318             0
y....319             0
y....320             0
y....321             0
y....322             0
y....323             0
y....324             0
y....325             0
y....326             0
y....327             0
y....328             0
y....329             0
y....330             0
y....331             0
y....332             0
y....333             0
y....334             0
y....335             0
y....336             0
y....337             0
y....338             0
y....339             0
y....340             0
y....341             0
y....342             0
y....343             0
y....344             0
y....345             1
y....346             0
y....347             0
y....348             0
y....349             0
y....350             0
y....351             0
y....352             0
y....353             0
y....354             0
y....355             0
y....356             0
y....357             0
y....358             0
y....359             0
y....360             0
y....361             0
y....362             0
y....363             0
y....364             0
y....365             0
y....366             1
y....367             0
y....368             1
y....369             0
y....370             1
y....371             0
y....372             0
y....373             0
y....374             -1.24766863507375e-12
y....375             -1.78246306603569e-13
y....376             0
y....377             -1.06942232847018e-12
y....378             0
y....379             0
y....380             0
y....381             0
y....382             0
y....383             0
y....384             0
y....385             1
y....386             0
y....387             0
y....388             0
y....389             0
y....390             0
y....391             0
y....392             0
y....393             -1.06936681731895e-12
y....394             0
y....395             1.00000000000107
y....396             0
y....397             0
y....398             0
y....399             -1.06942232847018e-12
y....400             1.00000000000116
